<?xml version = "1.0" encoding="UTF-8" standalone="yes"?>
<CPLEXSolution version="1.2">
 <header
   problemName="results/InstanceB2_bigm_finsteps123.lp"
   solutionName="incumbent"
   solutionIndex="-1"
   objectiveValue="5"
   solutionTypeValue="3"
   solutionTypeString="primal"
   solutionStatusValue="101"
   solutionStatusString="integer optimal solution"
   solutionMethodString="mip"
   primalFeasible="1"
   dualFeasible="1"
   MIPNodes="0"
   MIPIterations="67"
   writeLevel="1"/>
 <quality
   epInt="1.0000000000000001e-05"
   epRHS="9.9999999999999995e-07"
   maxIntInfeas="2.2204460492503131e-16"
   maxPrimalInfeas="2.2737367544323206e-13"
   maxX="43200"
   maxSlack="43183"/>
 <linearConstraints>
  <constraint name="c1" index="0" slack="0"/>
  <constraint name="c2" index="1" slack="0"/>
  <constraint name="c3" index="2" slack="0"/>
  <constraint name="c4" index="3" slack="0"/>
  <constraint name="c5" index="4" slack="0"/>
  <constraint name="c6" index="5" slack="0"/>
  <constraint name="c7" index="6" slack="0"/>
  <constraint name="c8" index="7" slack="0"/>
  <constraint name="c9" index="8" slack="0"/>
  <constraint name="c10" index="9" slack="0"/>
  <constraint name="c11" index="10" slack="0"/>
  <constraint name="c12" index="11" slack="0"/>
  <constraint name="c13" index="12" slack="0"/>
  <constraint name="c14" index="13" slack="0"/>
  <constraint name="c15" index="14" slack="0"/>
  <constraint name="c16" index="15" slack="0"/>
  <constraint name="c17" index="16" slack="0"/>
  <constraint name="c18" index="17" slack="0"/>
  <constraint name="c19" index="18" slack="-103"/>
  <constraint name="c20" index="19" slack="0"/>
  <constraint name="c21" index="20" slack="0"/>
  <constraint name="c22" index="21" slack="0"/>
  <constraint name="c23" index="22" slack="0"/>
  <constraint name="c24" index="23" slack="0"/>
  <constraint name="c25" index="24" slack="0"/>
  <constraint name="c26" index="25" slack="0"/>
  <constraint name="c27" index="26" slack="0"/>
  <constraint name="c28" index="27" slack="-31436"/>
  <constraint name="c29" index="28" slack="0"/>
  <constraint name="c30" index="29" slack="0"/>
  <constraint name="c31" index="30" slack="0"/>
  <constraint name="c32" index="31" slack="0"/>
  <constraint name="c33" index="32" slack="0"/>
  <constraint name="c34" index="33" slack="0"/>
  <constraint name="c35" index="34" slack="0"/>
  <constraint name="c36" index="35" slack="0"/>
  <constraint name="c37" index="36" slack="0"/>
  <constraint name="c38" index="37" slack="0"/>
  <constraint name="c39" index="38" slack="0"/>
  <constraint name="c40" index="39" slack="0"/>
  <constraint name="c41" index="40" slack="0"/>
  <constraint name="c42" index="41" slack="0"/>
  <constraint name="c43" index="42" slack="0"/>
  <constraint name="c44" index="43" slack="0"/>
  <constraint name="c45" index="44" slack="0"/>
  <constraint name="c46" index="45" slack="0"/>
  <constraint name="c47" index="46" slack="0"/>
  <constraint name="c48" index="47" slack="0"/>
  <constraint name="c49" index="48" slack="0"/>
  <constraint name="c50" index="49" slack="0"/>
  <constraint name="c51" index="50" slack="0"/>
  <constraint name="c52" index="51" slack="0"/>
  <constraint name="c53" index="52" slack="0"/>
  <constraint name="c54" index="53" slack="0"/>
  <constraint name="c55" index="54" slack="0"/>
  <constraint name="c56" index="55" slack="0"/>
  <constraint name="c57" index="56" slack="0"/>
  <constraint name="c58" index="57" slack="0"/>
  <constraint name="c59" index="58" slack="0"/>
  <constraint name="c60" index="59" slack="0"/>
  <constraint name="c61" index="60" slack="0"/>
  <constraint name="c62" index="61" slack="0"/>
  <constraint name="c63" index="62" slack="0"/>
  <constraint name="c64" index="63" slack="0"/>
  <constraint name="c65" index="64" slack="-123.99999999998545"/>
  <constraint name="c66" index="65" slack="0"/>
  <constraint name="c67" index="66" slack="-7.2759576141834259e-12"/>
  <constraint name="c68" index="67" slack="0"/>
  <constraint name="c69" index="68" slack="0"/>
  <constraint name="c70" index="69" slack="0"/>
  <constraint name="c71" index="70" slack="0"/>
  <constraint name="c72" index="71" slack="0"/>
  <constraint name="c73" index="72" slack="0"/>
  <constraint name="c74" index="73" slack="0"/>
  <constraint name="c75" index="74" slack="0"/>
  <constraint name="c76" index="75" slack="0"/>
  <constraint name="c77" index="76" slack="0"/>
  <constraint name="c78" index="77" slack="0"/>
  <constraint name="c79" index="78" slack="0"/>
  <constraint name="c80" index="79" slack="0"/>
  <constraint name="c81" index="80" slack="0"/>
  <constraint name="c82" index="81" slack="0"/>
  <constraint name="c83" index="82" slack="0"/>
  <constraint name="c84" index="83" slack="0"/>
  <constraint name="c85" index="84" slack="0"/>
  <constraint name="c86" index="85" slack="0"/>
  <constraint name="c87" index="86" slack="0"/>
  <constraint name="c88" index="87" slack="0"/>
  <constraint name="c89" index="88" slack="0"/>
  <constraint name="c90" index="89" slack="0"/>
  <constraint name="c91" index="90" slack="0"/>
  <constraint name="c92" index="91" slack="0"/>
  <constraint name="c93" index="92" slack="0"/>
  <constraint name="c94" index="93" slack="0"/>
  <constraint name="c95" index="94" slack="0"/>
  <constraint name="c96" index="95" slack="0"/>
  <constraint name="c97" index="96" slack="0"/>
  <constraint name="c98" index="97" slack="0"/>
  <constraint name="c99" index="98" slack="0"/>
  <constraint name="c100" index="99" slack="0"/>
  <constraint name="c101" index="100" slack="0"/>
  <constraint name="c102" index="101" slack="0"/>
  <constraint name="c103" index="102" slack="0"/>
  <constraint name="c104" index="103" slack="0"/>
  <constraint name="c105" index="104" slack="0"/>
  <constraint name="c106" index="105" slack="0"/>
  <constraint name="c107" index="106" slack="0"/>
  <constraint name="c108" index="107" slack="0"/>
  <constraint name="c109" index="108" slack="0"/>
  <constraint name="c110" index="109" slack="0"/>
  <constraint name="c111" index="110" slack="0"/>
  <constraint name="c112" index="111" slack="0"/>
  <constraint name="c113" index="112" slack="0"/>
  <constraint name="c114" index="113" slack="0"/>
  <constraint name="c115" index="114" slack="-17"/>
  <constraint name="c116" index="115" slack="0"/>
  <constraint name="c117" index="116" slack="0"/>
  <constraint name="c118" index="117" slack="0"/>
  <constraint name="c119" index="118" slack="0"/>
  <constraint name="c120" index="119" slack="0"/>
  <constraint name="c121" index="120" slack="0"/>
  <constraint name="c122" index="121" slack="0"/>
  <constraint name="c123" index="122" slack="0"/>
  <constraint name="c124" index="123" slack="0"/>
  <constraint name="c125" index="124" slack="0"/>
  <constraint name="c126" index="125" slack="0"/>
  <constraint name="c127" index="126" slack="0"/>
  <constraint name="c128" index="127" slack="0"/>
  <constraint name="c129" index="128" slack="0"/>
  <constraint name="c130" index="129" slack="0"/>
  <constraint name="c131" index="130" slack="0"/>
  <constraint name="c132" index="131" slack="0"/>
  <constraint name="c133" index="132" slack="0"/>
  <constraint name="c134" index="133" slack="0"/>
  <constraint name="c135" index="134" slack="0"/>
  <constraint name="c136" index="135" slack="0"/>
  <constraint name="c137" index="136" slack="0"/>
  <constraint name="c138" index="137" slack="0"/>
  <constraint name="c139" index="138" slack="0"/>
  <constraint name="c140" index="139" slack="0"/>
  <constraint name="c141" index="140" slack="0"/>
  <constraint name="c142" index="141" slack="0"/>
  <constraint name="c143" index="142" slack="0"/>
  <constraint name="c144" index="143" slack="0"/>
  <constraint name="c145" index="144" slack="0"/>
  <constraint name="c146" index="145" slack="0"/>
  <constraint name="c147" index="146" slack="0"/>
  <constraint name="c148" index="147" slack="0"/>
  <constraint name="c149" index="148" slack="741"/>
  <constraint name="c150" index="149" slack="42281"/>
  <constraint name="c151" index="150" slack="811"/>
  <constraint name="c152" index="151" slack="42201"/>
  <constraint name="c153" index="152" slack="729"/>
  <constraint name="c154" index="153" slack="42187"/>
  <constraint name="c155" index="154" slack="466"/>
  <constraint name="c156" index="155" slack="41829"/>
  <constraint name="c157" index="156" slack="826"/>
  <constraint name="c158" index="157" slack="41834"/>
  <constraint name="c159" index="158" slack="720"/>
  <constraint name="c160" index="159" slack="41924"/>
  <constraint name="c161" index="160" slack="257"/>
  <constraint name="c162" index="161" slack="42180"/>
  <constraint name="c163" index="162" slack="316"/>
  <constraint name="c164" index="163" slack="42463"/>
  <constraint name="c165" index="164" slack="0"/>
  <constraint name="c166" index="165" slack="42404"/>
  <constraint name="c167" index="166" slack="4324"/>
  <constraint name="c168" index="167" slack="38698"/>
  <constraint name="c169" index="168" slack="4394"/>
  <constraint name="c170" index="169" slack="38618"/>
  <constraint name="c171" index="170" slack="4312"/>
  <constraint name="c172" index="171" slack="38604"/>
  <constraint name="c173" index="172" slack="4049"/>
  <constraint name="c174" index="173" slack="38246"/>
  <constraint name="c175" index="174" slack="4229"/>
  <constraint name="c176" index="175" slack="38431"/>
  <constraint name="c177" index="176" slack="4123"/>
  <constraint name="c178" index="177" slack="38521"/>
  <constraint name="c179" index="178" slack="3660"/>
  <constraint name="c180" index="179" slack="38777"/>
  <constraint name="c181" index="180" slack="3719"/>
  <constraint name="c182" index="181" slack="39060"/>
  <constraint name="c183" index="182" slack="3403"/>
  <constraint name="c184" index="183" slack="39001"/>
  <constraint name="c185" index="184" slack="2360"/>
  <constraint name="c186" index="185" slack="40629"/>
  <constraint name="c187" index="186" slack="2180"/>
  <constraint name="c188" index="187" slack="40840"/>
  <constraint name="c189" index="188" slack="1911"/>
  <constraint name="c190" index="189" slack="41020"/>
  <constraint name="c191" index="190" slack="1126"/>
  <constraint name="c192" index="191" slack="41329"/>
  <constraint name="c193" index="192" slack="586"/>
  <constraint name="c194" index="193" slack="42074"/>
  <constraint name="c195" index="194" slack="0"/>
  <constraint name="c196" index="195" slack="42614"/>
  <constraint name="c197" index="196" slack="42180"/>
  <constraint name="c198" index="197" slack="287"/>
  <constraint name="c199" index="198" slack="41759"/>
  <constraint name="c200" index="199" slack="1020"/>
  <constraint name="c201" index="200" slack="40963"/>
  <constraint name="c202" index="201" slack="1441"/>
  <constraint name="c203" index="202" slack="3373"/>
  <constraint name="c204" index="203" slack="39407"/>
  <constraint name="c205" index="204" slack="3433"/>
  <constraint name="c206" index="205" slack="39467"/>
  <constraint name="c207" index="206" slack="3433"/>
  <constraint name="c208" index="207" slack="39467"/>
  <constraint name="c209" index="208" slack="3493"/>
  <constraint name="c210" index="209" slack="39527"/>
  <constraint name="c211" index="210" slack="3405"/>
  <constraint name="c212" index="211" slack="39439"/>
  <constraint name="c213" index="212" slack="3503"/>
  <constraint name="c214" index="213" slack="39537"/>
  <constraint name="c215" index="214" slack="3461"/>
  <constraint name="c216" index="215" slack="39495"/>
  <constraint name="c217" index="216" slack="3103"/>
  <constraint name="c218" index="217" slack="39137"/>
  <constraint name="c219" index="218" slack="3163"/>
  <constraint name="c220" index="219" slack="39557"/>
  <constraint name="c221" index="220" slack="3193"/>
  <constraint name="c222" index="221" slack="39587"/>
  <constraint name="c223" index="222" slack="3103"/>
  <constraint name="c224" index="223" slack="39497"/>
  <constraint name="c225" index="224" slack="3223"/>
  <constraint name="c226" index="225" slack="39617"/>
  <constraint name="c227" index="226" slack="3103"/>
  <constraint name="c228" index="227" slack="39497"/>
  <constraint name="c229" index="228" slack="2850"/>
  <constraint name="c230" index="229" slack="39840"/>
  <constraint name="c231" index="230" slack="2490"/>
  <constraint name="c232" index="231" slack="40410"/>
  <constraint name="c233" index="232" slack="2190"/>
  <constraint name="c234" index="233" slack="40770"/>
  <constraint name="c235" index="234" slack="1890"/>
  <constraint name="c236" index="235" slack="41070"/>
  <constraint name="c237" index="236" slack="1441"/>
  <constraint name="c238" index="237" slack="41370"/>
  <constraint name="c239" index="238" slack="1289"/>
  <constraint name="c240" index="239" slack="41759"/>
  <constraint name="c241" index="240" slack="1060"/>
  <constraint name="c242" index="241" slack="41911"/>
  <constraint name="c243" index="242" slack="180"/>
  <constraint name="c244" index="243" slack="42220"/>
  <constraint name="c245" index="244" slack="42720"/>
  <constraint name="c246" index="245" slack="0"/>
  <constraint name="c247" index="246" slack="42270"/>
  <constraint name="c248" index="247" slack="480"/>
  <constraint name="c249" index="248" slack="41623"/>
  <constraint name="c250" index="249" slack="1007"/>
  <constraint name="c251" index="250" slack="41263"/>
  <constraint name="c252" index="251" slack="1577"/>
  <constraint name="c253" index="252" slack="40663"/>
  <constraint name="c254" index="253" slack="1937"/>
  <constraint name="c255" index="254" slack="3318"/>
  <constraint name="c256" index="255" slack="39656"/>
  <constraint name="c257" index="256" slack="3243"/>
  <constraint name="c258" index="257" slack="39882"/>
  <constraint name="c259" index="258" slack="2974"/>
  <constraint name="c260" index="259" slack="39957"/>
  <constraint name="c261" index="260" slack="2734"/>
  <constraint name="c262" index="261" slack="40286"/>
  <constraint name="c263" index="262" slack="2494"/>
  <constraint name="c264" index="263" slack="40526"/>
  <constraint name="c265" index="264" slack="2082.0000000000146"/>
  <constraint name="c266" index="265" slack="40889.999999999985"/>
  <constraint name="c267" index="266" slack="1680.0000000000073"/>
  <constraint name="c268" index="267" slack="41117.999999999993"/>
  <constraint name="c269" index="268" slack="3471"/>
  <constraint name="c270" index="269" slack="39549"/>
  <constraint name="c271" index="270" slack="3531"/>
  <constraint name="c272" index="271" slack="39609"/>
  <constraint name="c273" index="272" slack="3411"/>
  <constraint name="c274" index="273" slack="39489"/>
  <constraint name="c275" index="274" slack="3471"/>
  <constraint name="c276" index="275" slack="39549"/>
  <constraint name="c277" index="276" slack="3471"/>
  <constraint name="c278" index="277" slack="39549"/>
  <constraint name="c279" index="278" slack="3327.0000000000146"/>
  <constraint name="c280" index="279" slack="39652.999999999985"/>
  <constraint name="c281" index="280" slack="3187.0000000000073"/>
  <constraint name="c282" index="281" slack="39512.999999999993"/>
  <constraint name="c283" index="282" slack="1355"/>
  <constraint name="c284" index="283" slack="41443"/>
  <constraint name="c285" index="284" slack="1127"/>
  <constraint name="c286" index="285" slack="41845"/>
  <constraint name="c287" index="286" slack="887"/>
  <constraint name="c288" index="287" slack="42133"/>
  <constraint name="c289" index="288" slack="647"/>
  <constraint name="c290" index="289" slack="42373"/>
  <constraint name="c291" index="290" slack="318"/>
  <constraint name="c292" index="291" slack="42613"/>
  <constraint name="c293" index="292" slack="243"/>
  <constraint name="c294" index="293" slack="42882"/>
  <constraint name="c295" index="294" slack="17"/>
  <constraint name="c296" index="295" slack="42957"/>
  <constraint name="c297" index="296" slack="42467"/>
  <constraint name="c298" index="297" slack="223"/>
  <constraint name="c299" index="298" slack="42107"/>
  <constraint name="c300" index="299" slack="793"/>
  <constraint name="c301" index="300" slack="41807"/>
  <constraint name="c302" index="301" slack="1153"/>
  <constraint name="c303" index="302" slack="41507"/>
  <constraint name="c304" index="303" slack="1453"/>
  <constraint name="c305" index="304" slack="41058"/>
  <constraint name="c306" index="305" slack="1753"/>
  <constraint name="c307" index="306" slack="40906"/>
  <constraint name="c308" index="307" slack="2142"/>
  <constraint name="c309" index="308" slack="40677"/>
  <constraint name="c310" index="309" slack="2294"/>
  <constraint name="c311" index="310" slack="39797"/>
  <constraint name="c312" index="311" slack="2603"/>
  <constraint name="c313" index="312" slack="39317"/>
  <constraint name="c314" index="313" slack="3403"/>
  <constraint name="c315" index="314" slack="38867"/>
  <constraint name="c316" index="315" slack="3883"/>
  <constraint name="c317" index="316" slack="38220"/>
  <constraint name="c318" index="317" slack="4410"/>
  <constraint name="c319" index="318" slack="37860"/>
  <constraint name="c320" index="319" slack="4980"/>
  <constraint name="c321" index="320" slack="37260"/>
  <constraint name="c322" index="321" slack="5340"/>
  <constraint name="c323" index="322" slack="42840"/>
  <constraint name="c324" index="323" slack="43020"/>
  <constraint name="c325" index="324" slack="0"/>
  <constraint name="c326" index="325" slack="43183"/>
  <constraint name="c327" index="326" slack="163"/>
  <constraint name="c328" index="327" slack="343"/>
  <constraint name="c329" index="328" slack="43020.000000000007"/>
  <constraint name="c330" index="329" slack="-2.2737367544323206e-13"/>
  <constraint name="c331" index="330" slack="180.00000000000728"/>
  <constraint name="c332" index="331" slack="0"/>
  <constraint name="c333" index="332" slack="180"/>
  <constraint name="c334" index="333" slack="360"/>
  <constraint name="c335" index="334" slack="43183"/>
  <constraint name="c336" index="335" slack="163"/>
  <constraint name="c337" index="336" slack="343"/>
 </linearConstraints>
 <variables>
  <variable name="thr_0_27_0" index="0" value="1"/>
  <variable name="thr_0_27_180" index="1" value="1"/>
  <variable name="thr_0_27_360" index="2" value="-0"/>
  <variable name="thr_1_25_0" index="3" value="1"/>
  <variable name="thr_1_25_180" index="4" value="-0"/>
  <variable name="thr_1_25_360" index="5" value="-0"/>
  <variable name="thr_2_13_0" index="6" value="1"/>
  <variable name="thr_2_13_180" index="7" value="-1.7251416953204247e-16"/>
  <variable name="thr_2_13_360" index="8" value="-0"/>
  <variable name="thr_3_39_0" index="9" value="-0"/>
  <variable name="thr_3_39_180" index="10" value="-0"/>
  <variable name="thr_3_39_360" index="11" value="-0"/>
  <variable name="thr_4_39_0" index="12" value="1"/>
  <variable name="thr_4_39_180" index="13" value="-0"/>
  <variable name="thr_4_39_360" index="14" value="-0"/>
  <variable name="t_0_0" index="15" value="0"/>
  <variable name="t_0_1" index="16" value="0"/>
  <variable name="t_0_2" index="17" value="0"/>
  <variable name="t_0_3" index="18" value="0"/>
  <variable name="t_0_4" index="19" value="108"/>
  <variable name="t_0_5" index="20" value="108"/>
  <variable name="t_0_6" index="21" value="270"/>
  <variable name="t_0_7" index="22" value="270"/>
  <variable name="t_0_8" index="23" value="695"/>
  <variable name="t_0_9" index="24" value="695"/>
  <variable name="t_0_10" index="25" value="995"/>
  <variable name="t_0_11" index="26" value="995"/>
  <variable name="t_0_12" index="27" value="1341"/>
  <variable name="t_0_13" index="28" value="1581"/>
  <variable name="t_0_14" index="29" value="2044"/>
  <variable name="t_0_15" index="30" value="2044"/>
  <variable name="t_0_16" index="31" value="2285"/>
  <variable name="t_0_17" index="32" value="2285"/>
  <variable name="t_0_18" index="33" value="2781"/>
  <variable name="t_0_19" index="34" value="9244"/>
  <variable name="t_0_20" index="35" value="9634"/>
  <variable name="t_0_21" index="36" value="9634"/>
  <variable name="t_0_22" index="37" value="9914"/>
  <variable name="t_0_23" index="38" value="9914"/>
  <variable name="t_0_24" index="39" value="10444"/>
  <variable name="t_0_25" index="40" value="10744"/>
  <variable name="t_0_26" index="41" value="11208"/>
  <variable name="t_0_27" index="42" value="11208"/>
  <variable name="t_0_28" index="43" value="43200"/>
  <variable name="t_1_0" index="44" value="0"/>
  <variable name="t_1_1" index="45" value="21"/>
  <variable name="t_1_2" index="46" value="231"/>
  <variable name="t_1_3" index="47" value="261"/>
  <variable name="t_1_4" index="48" value="411"/>
  <variable name="t_1_5" index="49" value="441"/>
  <variable name="t_1_6" index="50" value="591"/>
  <variable name="t_1_7" index="51" value="621"/>
  <variable name="t_1_8" index="52" value="711"/>
  <variable name="t_1_9" index="53" value="741"/>
  <variable name="t_1_10" index="54" value="919"/>
  <variable name="t_1_11" index="55" value="919"/>
  <variable name="t_1_12" index="56" value="999"/>
  <variable name="t_1_13" index="57" value="999"/>
  <variable name="t_1_14" index="58" value="1121"/>
  <variable name="t_1_15" index="59" value="1161"/>
  <variable name="t_1_16" index="60" value="1641"/>
  <variable name="t_1_17" index="61" value="1821"/>
  <variable name="t_1_18" index="62" value="2061"/>
  <variable name="t_1_19" index="63" value="2061"/>
  <variable name="t_1_20" index="64" value="2271"/>
  <variable name="t_1_21" index="65" value="2301"/>
  <variable name="t_1_22" index="66" value="2601"/>
  <variable name="t_1_23" index="67" value="2601"/>
  <variable name="t_1_24" index="68" value="2781"/>
  <variable name="t_1_25" index="69" value="2781"/>
  <variable name="t_1_26" index="70" value="3081"/>
  <variable name="t_2_0" index="71" value="0"/>
  <variable name="t_2_1" index="72" value="0"/>
  <variable name="t_2_2" index="73" value="90"/>
  <variable name="t_2_3" index="74" value="90"/>
  <variable name="t_2_4" index="75" value="120"/>
  <variable name="t_2_5" index="76" value="120"/>
  <variable name="t_2_6" index="77" value="270"/>
  <variable name="t_2_7" index="78" value="300"/>
  <variable name="t_2_8" index="79" value="390"/>
  <variable name="t_2_9" index="80" value="420"/>
  <variable name="t_2_10" index="81" value="510"/>
  <variable name="t_2_11" index="82" value="663.99999999998545"/>
  <variable name="t_2_12" index="83" value="773.99999999998545"/>
  <variable name="t_2_13" index="84" value="773.99999999999272"/>
  <variable name="t_2_14" index="85" value="1023.9999999999927"/>
  <variable name="t_3_0" index="86" value="2644"/>
  <variable name="t_3_1" index="87" value="2704"/>
  <variable name="t_3_2" index="88" value="2856"/>
  <variable name="t_3_3" index="89" value="2856"/>
  <variable name="t_3_4" index="90" value="2974"/>
  <variable name="t_3_5" index="91" value="3004"/>
  <variable name="t_3_6" index="92" value="3094"/>
  <variable name="t_3_7" index="93" value="3124"/>
  <variable name="t_3_8" index="94" value="3214"/>
  <variable name="t_3_9" index="95" value="3244"/>
  <variable name="t_3_10" index="96" value="3363"/>
  <variable name="t_3_11" index="97" value="3363"/>
  <variable name="t_3_12" index="98" value="3408"/>
  <variable name="t_3_13" index="99" value="3408"/>
  <variable name="t_3_14" index="100" value="3544"/>
  <variable name="t_3_15" index="101" value="3604"/>
  <variable name="t_3_16" index="102" value="3814"/>
  <variable name="t_3_17" index="103" value="3844"/>
  <variable name="t_3_18" index="104" value="3994"/>
  <variable name="t_3_19" index="105" value="4024"/>
  <variable name="t_3_20" index="106" value="4174"/>
  <variable name="t_3_21" index="107" value="4204"/>
  <variable name="t_3_22" index="108" value="4294"/>
  <variable name="t_3_23" index="109" value="4324"/>
  <variable name="t_3_24" index="110" value="4502"/>
  <variable name="t_3_25" index="111" value="4502"/>
  <variable name="t_3_26" index="112" value="4582"/>
  <variable name="t_3_27" index="113" value="4582"/>
  <variable name="t_3_28" index="114" value="4704"/>
  <variable name="t_3_29" index="115" value="4744"/>
  <variable name="t_3_30" index="116" value="5224"/>
  <variable name="t_3_31" index="117" value="5224"/>
  <variable name="t_3_32" index="118" value="5464"/>
  <variable name="t_3_33" index="119" value="5464"/>
  <variable name="t_3_34" index="120" value="5674"/>
  <variable name="t_3_35" index="121" value="5704"/>
  <variable name="t_3_36" index="122" value="6004"/>
  <variable name="t_3_37" index="123" value="6004"/>
  <variable name="t_3_38" index="124" value="6184"/>
  <variable name="t_3_39" index="125" value="6184"/>
  <variable name="t_3_40" index="126" value="6484"/>
  <variable name="t_4_0" index="127" value="544"/>
  <variable name="t_4_1" index="128" value="544"/>
  <variable name="t_4_2" index="129" value="844"/>
  <variable name="t_4_3" index="130" value="844"/>
  <variable name="t_4_4" index="131" value="1024"/>
  <variable name="t_4_5" index="132" value="1024"/>
  <variable name="t_4_6" index="133" value="1294"/>
  <variable name="t_4_7" index="134" value="1341"/>
  <variable name="t_4_8" index="135" value="1581"/>
  <variable name="t_4_9" index="136" value="1581"/>
  <variable name="t_4_10" index="137" value="1821"/>
  <variable name="t_4_11" index="138" value="1821"/>
  <variable name="t_4_12" index="139" value="2141"/>
  <variable name="t_4_13" index="140" value="2181"/>
  <variable name="t_4_14" index="141" value="2288"/>
  <variable name="t_4_15" index="142" value="2288"/>
  <variable name="t_4_16" index="143" value="2360"/>
  <variable name="t_4_17" index="144" value="2360"/>
  <variable name="t_4_18" index="145" value="2571"/>
  <variable name="t_4_19" index="146" value="2601"/>
  <variable name="t_4_20" index="147" value="2751"/>
  <variable name="t_4_21" index="148" value="2781"/>
  <variable name="t_4_22" index="149" value="2871"/>
  <variable name="t_4_23" index="150" value="2901"/>
  <variable name="t_4_24" index="151" value="3051"/>
  <variable name="t_4_25" index="152" value="3081"/>
  <variable name="t_4_26" index="153" value="3381"/>
  <variable name="t_4_27" index="154" value="3561"/>
  <variable name="t_4_28" index="155" value="3651"/>
  <variable name="t_4_29" index="156" value="3651"/>
  <variable name="t_4_30" index="157" value="3681"/>
  <variable name="t_4_31" index="158" value="3681"/>
  <variable name="t_4_32" index="159" value="3831"/>
  <variable name="t_4_33" index="160" value="3861"/>
  <variable name="t_4_34" index="161" value="3951"/>
  <variable name="t_4_35" index="162" value="3981"/>
  <variable name="t_4_36" index="163" value="4071"/>
  <variable name="t_4_37" index="164" value="4101"/>
  <variable name="t_4_38" index="165" value="4211"/>
  <variable name="t_4_39" index="166" value="4211"/>
  <variable name="t_4_40" index="167" value="4461"/>
  <variable name="y_0_1_1_9" index="168" value="1"/>
  <variable name="y_0_3_1_11" index="169" value="1"/>
  <variable name="y_0_5_1_13" index="170" value="1"/>
  <variable name="y_0_7_1_15" index="171" value="1"/>
  <variable name="y_0_9_1_17" index="172" value="1"/>
  <variable name="y_0_11_1_19" index="173" value="1"/>
  <variable name="y_0_13_1_21" index="174" value="1"/>
  <variable name="y_0_15_1_23" index="175" value="1"/>
  <variable name="y_0_17_1_25" index="176" value="1"/>
  <variable name="y_0_1_3_23" index="177" value="1"/>
  <variable name="y_0_3_3_25" index="178" value="1"/>
  <variable name="y_0_5_3_27" index="179" value="1"/>
  <variable name="y_0_7_3_29" index="180" value="1"/>
  <variable name="y_0_9_3_31" index="181" value="1"/>
  <variable name="y_0_11_3_33" index="182" value="1"/>
  <variable name="y_0_13_3_35" index="183" value="1"/>
  <variable name="y_0_15_3_37" index="184" value="1"/>
  <variable name="y_0_17_3_39" index="185" value="1"/>
  <variable name="y_0_1_4_17" index="186" value="1"/>
  <variable name="y_0_3_4_15" index="187" value="1"/>
  <variable name="y_0_5_4_13" index="188" value="1"/>
  <variable name="y_0_7_4_11" index="189" value="1"/>
  <variable name="y_0_9_4_9" index="190" value="1"/>
  <variable name="y_0_11_4_7" index="191" value="1"/>
  <variable name="y_0_13_4_5" index="192" value="-0"/>
  <variable name="y_0_15_4_3" index="193" value="-0"/>
  <variable name="y_0_17_4_1" index="194" value="-0"/>
  <variable name="y_1_1_3_15" index="195" value="1"/>
  <variable name="y_1_3_3_17" index="196" value="1"/>
  <variable name="y_1_5_3_19" index="197" value="1"/>
  <variable name="y_1_7_3_21" index="198" value="1"/>
  <variable name="y_1_9_3_23" index="199" value="1"/>
  <variable name="y_1_11_3_25" index="200" value="1"/>
  <variable name="y_1_13_3_27" index="201" value="1"/>
  <variable name="y_1_15_3_29" index="202" value="1"/>
  <variable name="y_1_17_3_31" index="203" value="1"/>
  <variable name="y_1_19_3_33" index="204" value="1"/>
  <variable name="y_1_21_3_35" index="205" value="1"/>
  <variable name="y_1_23_3_37" index="206" value="1"/>
  <variable name="y_1_25_3_39" index="207" value="1"/>
  <variable name="y_1_1_4_25" index="208" value="1"/>
  <variable name="y_1_3_4_23" index="209" value="1"/>
  <variable name="y_1_5_4_21" index="210" value="1"/>
  <variable name="y_1_7_4_19" index="211" value="1"/>
  <variable name="y_1_9_4_17" index="212" value="1"/>
  <variable name="y_1_11_4_15" index="213" value="1"/>
  <variable name="y_1_13_4_13" index="214" value="1"/>
  <variable name="y_1_15_4_11" index="215" value="1"/>
  <variable name="y_1_17_4_9" index="216" value="-0"/>
  <variable name="y_1_19_4_7" index="217" value="-0"/>
  <variable name="y_1_21_4_5" index="218" value="-0"/>
  <variable name="y_1_23_4_3" index="219" value="-0"/>
  <variable name="y_1_25_4_1" index="220" value="-0"/>
  <variable name="y_2_1_3_13" index="221" value="1"/>
  <variable name="y_2_3_3_11" index="222" value="1"/>
  <variable name="y_2_5_3_9" index="223" value="1"/>
  <variable name="y_2_7_3_7" index="224" value="1"/>
  <variable name="y_2_9_3_5" index="225" value="1"/>
  <variable name="y_2_11_3_3" index="226" value="1"/>
  <variable name="y_2_13_3_1" index="227" value="1"/>
  <variable name="y_2_1_4_27" index="228" value="1"/>
  <variable name="y_2_3_4_29" index="229" value="1"/>
  <variable name="y_2_5_4_31" index="230" value="1"/>
  <variable name="y_2_7_4_33" index="231" value="1"/>
  <variable name="y_2_9_4_35" index="232" value="1"/>
  <variable name="y_2_11_4_37" index="233" value="1"/>
  <variable name="y_2_13_4_39" index="234" value="1"/>
  <variable name="y_3_1_4_39" index="235" value="1"/>
  <variable name="y_3_3_4_37" index="236" value="1"/>
  <variable name="y_3_5_4_35" index="237" value="1"/>
  <variable name="y_3_7_4_33" index="238" value="1"/>
  <variable name="y_3_9_4_31" index="239" value="1"/>
  <variable name="y_3_11_4_29" index="240" value="1"/>
  <variable name="y_3_13_4_27" index="241" value="1"/>
  <variable name="y_3_15_4_25" index="242" value="-0"/>
  <variable name="y_3_17_4_23" index="243" value="-0"/>
  <variable name="y_3_19_4_21" index="244" value="-0"/>
  <variable name="y_3_21_4_19" index="245" value="-0"/>
  <variable name="y_3_23_4_17" index="246" value="-0"/>
  <variable name="y_3_25_4_15" index="247" value="-0"/>
  <variable name="y_3_27_4_13" index="248" value="-0"/>
  <variable name="y_3_29_4_11" index="249" value="-0"/>
  <variable name="y_3_31_4_9" index="250" value="-0"/>
  <variable name="y_3_33_4_7" index="251" value="-0"/>
  <variable name="y_3_35_4_5" index="252" value="-0"/>
  <variable name="y_3_37_4_3" index="253" value="-0"/>
  <variable name="y_3_39_4_1" index="254" value="-0"/>
 </variables>
</CPLEXSolution>
